(set-logic QF_SLIA)
(declare-const result String)
(declare-const attack String)
(declare-const prefix RegLan)
(declare-const infix RegLan)
(declare-const postfix RegLan)
(declare-const postfixs String)

(assert (str.in_re attack (re.++ prefix ((_ re.loop 20000 20000) infix) postfix)))
(assert (= prefix 
     (re.++  (re.++  (str.to_re "\x5c\x2f") (re.++  (str.to_re "\x5c\x2f") (re.++  (str.to_re "\x20") (re.++  (str.to_re "\x5c\x7b") (re.++  (str.to_re "\x63") (re.++  (str.to_re "\x6f") (re.++  (str.to_re "\x64") (re.++  (str.to_re "\x65") (re.++  (str.to_re "\x5f") (re.++  (str.to_re "\x65") (re.++  (str.to_re "\x78") (re.++  (str.to_re "\x61") (re.++  (str.to_re "\x6d") (re.++  (str.to_re "\x70") (re.++  (str.to_re "\x6c") (re.++  (str.to_re "\x65") (re.++  (str.to_re "\x5c\x7c") (re.* (re.union (re.range "\t" "\t") (re.range "\n" "\n") (re.range "\r" "\r") (str.to_re " ")) )))))))))))))))))) (re.+ re.allchar ))
))
(assert (= infix 
        (re.inter (re.+ re.allchar )  (re.++ (re.+ re.allchar ) (re.* (re.union (re.range "\t" "\t") (re.range "\n" "\n") (re.range "\r" "\r") (str.to_re " ")) )) (re.* (re.union (re.range "\t" "\t") (re.range "\n" "\n") (re.range "\r" "\r") (str.to_re " ")) ) )
))
(assert (= postfix 
         (re.++  (str.to_re "\x21") (re.++  (str.to_re "\x0a") (re.++  (str.to_re "\x21") (re.++  (str.to_re "\x0a")  (str.to_re "\x21")))))
))
(assert (str.in_re postfixs postfix))
(assert (>= (str.len postfixs) 1))
(assert (= result (str.++ attack postfixs)))
(check-sat)
(get-model)